g3 0 1 0	# problem errinros
 50 0 1 0 0	# vars, constraints, objectives, ranges, eqns
 0 1	# nonlinear constraints, objectives
 0 0	# network constraints: nonlinear, linear
 0 50 0	# nonlinear vars in constraints, objectives, both
 0 0 0 1	# linear network variables; functions; arith, flags
 0 0 0 0 0	# discrete variables: binary, integer, nonlinear (b,c,o)
 0 50	# nonzeros in Jacobian, gradients
 0 0	# max name lengths: constraints, variables
 0 0 0 0 0	# common exprs: b,c,o,c1,o1
b
3
3
3
3
3
3
3
3
3
3
3
3
3
3
3
3
3
3
3
3
3
3
3
3
3
3
3
3
3
3
3
3
3
3
3
3
3
3
3
3
3
3
3
3
3
3
3
3
3
3
x50
0 -1
1 -1
2 -1
3 -1
4 -1
5 -1
6 -1
7 -1
8 -1
9 -1
10 -1
11 -1
12 -1
13 -1
14 -1
15 -1
16 -1
17 -1
18 -1
19 -1
20 -1
21 -1
22 -1
23 -1
24 -1
25 -1
26 -1
27 -1
28 -1
29 -1
30 -1
31 -1
32 -1
33 -1
34 -1
35 -1
36 -1
37 -1
38 -1
39 -1
40 -1
41 -1
42 -1
43 -1
44 -1
45 -1
46 -1
47 -1
48 -1
49 -1
O0 0
o54
98
o5
o0
v0
o2
n-31.359999999999996
o5
v1
n2
n2
o5
o0
v1
o2
n-92.16
o5
v2
n2
n2
o5
o0
v2
o2
n-31.359999999999996
o5
v3
n2
n2
o5
o0
v3
o2
n-49
o5
v4
n2
n2
o5
o0
v4
o2
n-23.04
o5
v5
n2
n2
o5
o0
v5
o2
n-81
o5
v6
n2
n2
o5
o0
v6
o2
n-23.04
o5
v7
n2
n2
o5
o0
v7
o2
n-16
o5
v8
n2
n2
o5
o0
v8
o2
n-19.360000000000003
o5
v9
n2
n2
o5
o0
v9
o2
n-36
o5
v10
n2
n2
o5
o0
v10
o2
n-40.96000000000001
o5
v11
n2
n2
o5
o0
v11
o2
n-25
o5
v12
n2
n2
o5
o0
v12
o2
n-25
o5
v13
n2
n2
o5
o0
v13
o2
n-23.04
o5
v14
n2
n2
o5
o0
v14
o2
n-23.04
o5
v15
n2
n2
o5
o0
v15
o2
n-31.359999999999996
o5
v16
n2
n2
o5
o0
v16
o2
n-4
o5
v17
n2
n2
o5
o0
v17
o2
n-4
o5
v18
n2
n2
o5
o0
v18
o2
n-25
o5
v19
n2
n2
o5
o0
v19
o2
n-51.84
o5
v20
n2
n2
o5
o0
v20
o2
n-9
o5
v21
n2
n2
o5
o0
v21
o2
n-25
o5
v22
n2
n2
o5
o0
v22
o2
n-31.359999999999996
o5
v23
n2
n2
o5
o0
v23
o2
n-40.96000000000001
o5
v24
n2
n2
o5
o0
v24
o2
n-64
o5
v25
n2
n2
o5
o0
v25
o2
n-16
o5
v26
n2
n2
o5
o0
v26
o2
n-40.96000000000001
o5
v27
n2
n2
o5
o0
v27
o2
n-25
o5
v28
n2
n2
o5
o0
v28
o2
n-121
o5
v29
n2
n2
o5
o0
v29
o2
n-25
o5
v30
n2
n2
o5
o0
v30
o2
n-25
o5
v31
n2
n2
o5
o0
v31
o2
n-25
o5
v32
n2
n2
o5
o0
v32
o2
n-144
o5
v33
n2
n2
o5
o0
v33
o2
n-36
o5
v34
n2
n2
o5
o0
v34
o2
n-64
o5
v35
n2
n2
o5
o0
v35
o2
n-25
o5
v36
n2
n2
o5
o0
v36
o2
n-31.359999999999996
o5
v37
n2
n2
o5
o0
v37
o2
n-51.84
o5
v38
n2
n2
o5
o0
v38
o2
n-36
o5
v39
n2
n2
o5
o0
v39
o2
n-77.44000000000001
o5
v40
n2
n2
o5
o0
v40
o2
n-31.359999999999996
o5
v41
n2
n2
o5
o0
v41
o2
n-36
o5
v42
n2
n2
o5
o0
v42
o2
n-25
o5
v43
n2
n2
o5
o0
v43
o2
n-64
o5
v44
n2
n2
o5
o0
v44
o2
n-36
o5
v45
n2
n2
o5
o0
v45
o2
n-25
o5
v46
n2
n2
o5
o0
v46
o2
n-31.359999999999996
o5
v47
n2
n2
o5
o0
v47
o2
n-5.76
o5
v48
n2
n2
o5
o0
v48
o2
n-36
o5
v49
n2
n2
o5
o0
n-1
v1
n2
o5
o0
n-1
v2
n2
o5
o0
n-1
v3
n2
o5
o0
n-1
v4
n2
o5
o0
n-1
v5
n2
o5
o0
n-1
v6
n2
o5
o0
n-1
v7
n2
o5
o0
n-1
v8
n2
o5
o0
n-1
v9
n2
o5
o0
n-1
v10
n2
o5
o0
n-1
v11
n2
o5
o0
n-1
v12
n2
o5
o0
n-1
v13
n2
o5
o0
n-1
v14
n2
o5
o0
n-1
v15
n2
o5
o0
n-1
v16
n2
o5
o0
n-1
v17
n2
o5
o0
n-1
v18
n2
o5
o0
n-1
v19
n2
o5
o0
n-1
v20
n2
o5
o0
n-1
v21
n2
o5
o0
n-1
v22
n2
o5
o0
n-1
v23
n2
o5
o0
n-1
v24
n2
o5
o0
n-1
v25
n2
o5
o0
n-1
v26
n2
o5
o0
n-1
v27
n2
o5
o0
n-1
v28
n2
o5
o0
n-1
v29
n2
o5
o0
n-1
v30
n2
o5
o0
n-1
v31
n2
o5
o0
n-1
v32
n2
o5
o0
n-1
v33
n2
o5
o0
n-1
v34
n2
o5
o0
n-1
v35
n2
o5
o0
n-1
v36
n2
o5
o0
n-1
v37
n2
o5
o0
n-1
v38
n2
o5
o0
n-1
v39
n2
o5
o0
n-1
v40
n2
o5
o0
n-1
v41
n2
o5
o0
n-1
v42
n2
o5
o0
n-1
v43
n2
o5
o0
n-1
v44
n2
o5
o0
n-1
v45
n2
o5
o0
n-1
v46
n2
o5
o0
n-1
v47
n2
o5
o0
n-1
v48
n2
o5
o0
n-1
v49
n2
k49
0
0
0
0
0
0
0
0
0
0
0
0
0
0
0
0
0
0
0
0
0
0
0
0
0
0
0
0
0
0
0
0
0
0
0
0
0
0
0
0
0
0
0
0
0
0
0
0
0
G0 50
0 0
1 0
2 0
3 0
4 0
5 0
6 0
7 0
8 0
9 0
10 0
11 0
12 0
13 0
14 0
15 0
16 0
17 0
18 0
19 0
20 0
21 0
22 0
23 0
24 0
25 0
26 0
27 0
28 0
29 0
30 0
31 0
32 0
33 0
34 0
35 0
36 0
37 0
38 0
39 0
40 0
41 0
42 0
43 0
44 0
45 0
46 0
47 0
48 0
49 0
